c description: Random 3-CNF over 16 variables and 68 clauses
c generator: CNFgen (0.9.2)
c copyright: (C) 2012-2022 Massimo Lauria <massimo.lauria@uniroma1.it>
c url: https://massimolauria.net/cnfgen
c command line: cnfgen --output CNF_4.28/16_bit_68_117.cnf randkcnf 3 16 68
c
p cnf 16 68
1 -3 -7 0
1 8 15 0
4 9 -15 0
5 11 -15 0
-2 -4 16 0
3 5 -10 0
9 10 -11 0
2 10 -16 0
1 9 -14 0
-8 9 10 0
-1 11 15 0
7 -12 -16 0
-9 -11 -16 0
1 -8 12 0
3 5 -12 0
-4 -6 9 0
-2 7 -8 0
3 -7 -11 0
-4 -5 -6 0
-7 -15 16 0
-4 7 -9 0
-1 10 11 0
5 9 -10 0
-9 14 16 0
8 -10 12 0
-7 -9 -11 0
-2 -4 8 0
-4 -10 14 0
-2 4 -15 0
-7 -8 16 0
-9 -14 15 0
1 -5 16 0
9 -12 16 0
6 11 -13 0
4 -7 15 0
10 -15 16 0
2 7 15 0
-3 10 12 0
-2 5 -12 0
-2 9 -10 0
-4 -5 7 0
-2 -7 -14 0
5 11 -12 0
3 8 -13 0
7 -9 -15 0
-10 12 -15 0
-4 5 -16 0
3 5 -16 0
-1 -2 -8 0
-1 -2 -6 0
2 6 -14 0
-7 14 16 0
-6 -7 13 0
-1 5 -10 0
-2 4 -11 0
-4 11 -16 0
-1 -13 -15 0
-5 -10 -14 0
1 -6 -11 0
1 -2 -11 0
4 -6 -11 0
2 -9 -14 0
4 11 13 0
3 -9 11 0
-1 2 7 0
4 -6 -15 0
4 -13 16 0
10 12 -16 0
